(set-info :smt-lib-version 2.6)
(set-logic QF_LIA)
(set-info :source |
Older mathsat benchmarks.  Contact Mathsat group at http://mathsat.itc.it/ for
more information.

This benchmark was automatically translated into SMT-LIB format from
CVC format using CVC Lite
|)
(set-info :category "industrial")
(set-info :status sat)
(declare-fun AT0_PROC3_CS () Bool)
(declare-fun AT0_PROC1_X () Int)
(declare-fun AT0_ID0 () Bool)
(declare-fun AT1_PROC2_C () Bool)
(declare-fun AT0_ID1 () Bool)
(declare-fun AT1_PROC2_B () Bool)
(declare-fun AT0_ID2 () Bool)
(declare-fun AT1_PROC2_A () Bool)
(declare-fun AT0_ID3 () Bool)
(declare-fun AT0_PROC3_SW_CS_A_TAU () Bool)
(declare-fun AT0_ID4 () Bool)
(declare-fun AT1_PROC2_CS () Bool)
(declare-fun AT0_PROC4_X () Int)
(declare-fun AT0_PROC3_TAU () Bool)
(declare-fun AT0_PROC2_SW_C_B_TAU () Bool)
(declare-fun AT0_PROC4_SW_C_B_TAU () Bool)
(declare-fun AT0_PROC1_C () Bool)
(declare-fun AT0_PROC1_B () Bool)
(declare-fun AT0_PROC1_A () Bool)
(declare-fun AT1_PROC3_X () Int)
(declare-fun AT0_PROC3_WAIT () Bool)
(declare-fun AT0_PROC2_CS () Bool)
(declare-fun AT0_PROC4_C () Bool)
(declare-fun AT0_PROC4_B () Bool)
(declare-fun AT1_ID0 () Bool)
(declare-fun AT0_PROC4_A () Bool)
(declare-fun AT1_ID1 () Bool)
(declare-fun AT1_ID2 () Bool)
(declare-fun AT1_ID3 () Bool)
(declare-fun AT1_ID4 () Bool)
(declare-fun AT0_PROC1_SW_CS_A_TAU () Bool)
(declare-fun AT0_PROC4_TAU () Bool)
(declare-fun AT0_PROC2_X () Int)
(declare-fun AT1_PROC3_CS () Bool)
(declare-fun AT0_PROC4_SW_A_B_TAU () Bool)
(declare-fun AT1_PROC3_C () Bool)
(declare-fun AT1_PROC3_B () Bool)
(declare-fun AT1_PROC3_A () Bool)
(declare-fun AT1_PROC1_X () Int)
(declare-fun AT1_Z () Int)
(declare-fun AT0_PROC4_SW_B_C_TAU () Bool)
(declare-fun AT0_PROC2_C () Bool)
(declare-fun AT0_PROC2_SW_C_CS_TAU () Bool)
(declare-fun AT0_PROC2_B () Bool)
(declare-fun AT0_PROC2_A () Bool)
(declare-fun AT0_PROC3_SW_B_C_TAU () Bool)
(declare-fun AT0_PROC1_SW_C_B_TAU () Bool)
(declare-fun AT0_PROC1_CS () Bool)
(declare-fun AT0_PROC4_WAIT () Bool)
(declare-fun AT0_PROC1_TAU () Bool)
(declare-fun AT0_PROC1_SW_C_CS_TAU () Bool)
(declare-fun AT1_PROC4_X () Int)
(declare-fun AT0_PROC4_SW_CS_A_TAU () Bool)
(declare-fun AT0_PROC1_WAIT () Bool)
(declare-fun AT0_PROC4_CS () Bool)
(declare-fun AT1_PROC1_C () Bool)
(declare-fun AT1_PROC1_B () Bool)
(declare-fun AT1_PROC4_CS () Bool)
(declare-fun AT1_PROC1_A () Bool)
(declare-fun AT0_PROC3_SW_A_B_TAU () Bool)
(declare-fun AT0_DELTA () Bool)
(declare-fun AT0_PROC3_X () Int)
(declare-fun AT0_PROC2_SW_B_C_TAU () Bool)
(declare-fun AT1_PROC4_C () Bool)
(declare-fun AT1_PROC1_CS () Bool)
(declare-fun AT1_PROC4_B () Bool)
(declare-fun AT1_PROC4_A () Bool)
(declare-fun AT0_PROC3_SW_C_CS_TAU () Bool)
(declare-fun AT0_PROC1_SW_A_B_TAU () Bool)
(declare-fun AT0_PROC2_SW_CS_A_TAU () Bool)
(declare-fun AT0_PROC2_TAU () Bool)
(declare-fun AT1_PROC2_X () Int)
(declare-fun AT0_PROC4_SW_C_CS_TAU () Bool)
(declare-fun AT0_Z () Int)
(declare-fun AT0_PROC2_SW_A_B_TAU () Bool)
(declare-fun AT0_PROC3_C () Bool)
(declare-fun AT0_PROC3_B () Bool)
(declare-fun AT0_PROC3_A () Bool)
(declare-fun AT0_PROC3_SW_C_B_TAU () Bool)
(declare-fun AT0_PROC2_WAIT () Bool)
(declare-fun AT0_PROC1_SW_B_C_TAU () Bool)
(assert (let ((?v_0 (not AT0_PROC1_A)) (?v_1 (not AT0_PROC1_B)) (?v_2 (not AT0_PROC1_C)) (?v_3 (not AT0_PROC1_CS)) (?v_4 (not AT1_PROC1_A)) (?v_5 (not AT1_PROC1_B)) (?v_6 (not AT1_PROC1_C)) (?v_7 (not AT1_PROC1_CS)) (?v_8 (not AT0_PROC2_A)) (?v_9 (not AT0_PROC2_B)) (?v_10 (not AT0_PROC2_C)) (?v_11 (not AT0_PROC2_CS)) (?v_12 (not AT1_PROC2_A)) (?v_13 (not AT1_PROC2_B)) (?v_14 (not AT1_PROC2_C)) (?v_15 (not AT1_PROC2_CS)) (?v_16 (not AT0_PROC3_A)) (?v_17 (not AT0_PROC3_B)) (?v_18 (not AT0_PROC3_C)) (?v_19 (not AT0_PROC3_CS)) (?v_20 (not AT1_PROC3_A)) (?v_21 (not AT1_PROC3_B)) (?v_22 (not AT1_PROC3_C)) (?v_23 (not AT1_PROC3_CS)) (?v_24 (not AT0_PROC4_A)) (?v_25 (not AT0_PROC4_B)) (?v_26 (not AT0_PROC4_C)) (?v_27 (not AT0_PROC4_CS)) (?v_28 (not AT1_PROC4_A)) (?v_29 (not AT1_PROC4_B)) (?v_30 (not AT1_PROC4_C)) (?v_31 (not AT1_PROC4_CS)) (?v_32 (= AT0_PROC1_X AT0_Z)) (?v_33 (> AT0_PROC1_X AT0_Z))) (let ((?v_99 (not ?v_32)) (?v_34 (= AT1_PROC1_X AT1_Z)) (?v_35 (> AT1_PROC1_X AT1_Z))) (let ((?v_98 (not ?v_34)) (?v_36 (= AT0_PROC2_X AT0_Z)) (?v_37 (> AT0_PROC2_X AT0_Z))) (let ((?v_104 (not ?v_36)) (?v_38 (= AT1_PROC2_X AT1_Z)) (?v_39 (> AT1_PROC2_X AT1_Z))) (let ((?v_103 (not ?v_38)) (?v_40 (= AT0_PROC3_X AT0_Z)) (?v_41 (> AT0_PROC3_X AT0_Z))) (let ((?v_108 (not ?v_40)) (?v_42 (= AT1_PROC3_X AT1_Z)) (?v_43 (> AT1_PROC3_X AT1_Z))) (let ((?v_107 (not ?v_42)) (?v_44 (= AT0_PROC4_X AT0_Z)) (?v_45 (> AT0_PROC4_X AT0_Z))) (let ((?v_112 (not ?v_44)) (?v_46 (= AT1_PROC4_X AT1_Z)) (?v_47 (> AT1_PROC4_X AT1_Z))) (let ((?v_111 (not ?v_46)) (?v_53 (- AT0_PROC1_X AT0_Z))) (let ((?v_50 (<= ?v_53 10)) (?v_61 (- AT0_PROC2_X AT0_Z))) (let ((?v_58 (<= ?v_61 10)) (?v_68 (- AT0_PROC3_X AT0_Z))) (let ((?v_65 (<= ?v_68 10)) (?v_75 (- AT0_PROC4_X AT0_Z))) (let ((?v_72 (<= ?v_75 10)) (?v_48 (not AT0_PROC1_SW_A_B_TAU)) (?v_49 (not AT0_PROC1_SW_B_C_TAU)) (?v_51 (not AT0_PROC1_SW_C_B_TAU)) (?v_52 (not AT0_PROC1_SW_C_CS_TAU)) (?v_78 (= AT1_PROC1_X AT0_PROC1_X)) (?v_54 (not AT0_PROC1_SW_CS_A_TAU)) (?v_55 (= AT1_Z AT0_Z)) (?v_56 (not AT0_PROC2_SW_A_B_TAU)) (?v_57 (not AT0_PROC2_SW_B_C_TAU)) (?v_59 (not AT0_PROC2_SW_C_B_TAU)) (?v_60 (not AT0_PROC2_SW_C_CS_TAU)) (?v_80 (= AT1_PROC2_X AT0_PROC2_X)) (?v_62 (not AT0_PROC2_SW_CS_A_TAU)) (?v_63 (not AT0_PROC3_SW_A_B_TAU)) (?v_64 (not AT0_PROC3_SW_B_C_TAU)) (?v_66 (not AT0_PROC3_SW_C_B_TAU)) (?v_67 (not AT0_PROC3_SW_C_CS_TAU)) (?v_82 (= AT1_PROC3_X AT0_PROC3_X)) (?v_69 (not AT0_PROC3_SW_CS_A_TAU)) (?v_70 (not AT0_PROC4_SW_A_B_TAU)) (?v_71 (not AT0_PROC4_SW_B_C_TAU)) (?v_73 (not AT0_PROC4_SW_C_B_TAU)) (?v_74 (not AT0_PROC4_SW_C_CS_TAU)) (?v_84 (= AT1_PROC4_X AT0_PROC4_X)) (?v_76 (not AT0_PROC4_SW_CS_A_TAU)) (?v_77 (not AT0_PROC1_WAIT)) (?v_86 (not AT0_PROC1_TAU)) (?v_79 (not AT0_PROC2_WAIT)) (?v_87 (not AT0_PROC2_TAU)) (?v_81 (not AT0_PROC3_WAIT)) (?v_89 (not AT0_PROC3_TAU)) (?v_83 (not AT0_PROC4_WAIT)) (?v_90 (not AT0_PROC4_TAU)) (?v_85 (not AT0_DELTA)) (?v_95 (< AT1_Z AT0_Z))) (let ((?v_88 (or ?v_85 ?v_95)) (?v_91 (< AT1_PROC1_X AT0_PROC1_X)) (?v_96 (not ?v_78)) (?v_92 (< AT1_PROC2_X AT0_PROC2_X)) (?v_102 (not ?v_80)) (?v_93 (< AT1_PROC3_X AT0_PROC3_X)) (?v_106 (not ?v_82)) (?v_94 (< AT1_PROC4_X AT0_PROC4_X)) (?v_110 (not ?v_84)) (?v_97 (not ?v_55)) (?v_101 (not ?v_95))) (let ((?v_100 (or ?v_99 ?v_96)) (?v_105 (or ?v_104 ?v_102)) (?v_109 (or ?v_108 ?v_106)) (?v_113 (or ?v_112 ?v_110)) (?v_114 (not AT0_ID0)) (?v_115 (not AT0_ID1)) (?v_116 (not AT0_ID2)) (?v_117 (not AT0_ID3)) (?v_118 (not AT0_ID4)) (?v_119 (not AT1_ID0)) (?v_120 (not AT1_ID1)) (?v_121 (not AT1_ID2)) (?v_122 (not AT1_ID3)) (?v_123 (not AT1_ID4)) (?v_124 (- AT1_PROC1_X AT1_Z)) (?v_125 (- AT1_PROC2_X AT1_Z)) (?v_126 (- AT1_PROC3_X AT1_Z)) (?v_127 (- AT1_PROC4_X AT1_Z))) (and (and (and (and (and (and (and (and (and (and (and (and (and (and (and (and (and (and (and (and (and (and (and (and (and (and (and (and (and (and (and (and (and (and (and (and (and (and (and (and (and (and (and (and (and (and (and (and (and (and (and (and (and (and (and (and (and (and (and (and (and (and (and (and (and (and (and (and (and (and (and (and (and (and (and (and (and (and (and (and (and (and (and (and (and (and (and (and (and (and (and (and (and (and (and (and (and (and (and (and (and (and (and (and (and (and (and (and (and (and (and (and (and (and (and (and (and (and (and (and (and (and (and (and (and (and (and (and (and (and (and (and (and (and (and (and (and (and (and (and (and (and (and (and (and (and (and (and (and (and (and (and (and (and (and (and (and (and (and (and (and (and (and (and (and (and (and (and (and (and (and (and (and (and (and (and (and (and (and (and (and (and (and (and (and (and (and (and (and (and (and (and (and (and (and (and (and (and (and (and (and (and (and (and (and (and (and (and (and (and (and (and (and (and (and (and (and (and (and (and (and (and (and (and (and (and (and (and (and (and (and (and (and (and (and (and (and (and (and (and (and (and (and (and (and (and (and (and (and (and (and (and (and (and (and (and (and (and (and (and (and (and (and (and (and (and (and (and (and (and (and (and (and (and (and (and (and (and (and (and (and (and (and (and (and (and (and (and (and (and (and (and (and (and (and (and (and (and (and (and (and (and (and (and (and (and (and (and (and (and (and (and (and (and (and (and (and (and (and (and (and (and (and (and (and (and (and (and (and (and (and (and (and (and (and (and (and (and (and (and (and (and (and (and (and (and (and (and (and (and (and (and (and (and (and (and (and (and (and (and (and (and (and (and (and (and (and (and (and (and (and (and (and (and (and (and (and (and (and (and (and (and (and (and (and (and (and (and (and (and (and (and (and (and (and (and (and (and (and (and (and (and (and (and (and (and (and (and (and (and (and (and (and (and (or ?v_0 ?v_1) (or ?v_0 ?v_2)) (or ?v_0 ?v_3)) (or ?v_1 ?v_2)) (or ?v_1 ?v_3)) (or ?v_2 ?v_3)) (or ?v_4 ?v_5)) (or ?v_4 ?v_6)) (or ?v_4 ?v_7)) (or ?v_5 ?v_6)) (or ?v_5 ?v_7)) (or ?v_6 ?v_7)) (or ?v_8 ?v_9)) (or ?v_8 ?v_10)) (or ?v_8 ?v_11)) (or ?v_9 ?v_10)) (or ?v_9 ?v_11)) (or ?v_10 ?v_11)) (or ?v_12 ?v_13)) (or ?v_12 ?v_14)) (or ?v_12 ?v_15)) (or ?v_13 ?v_14)) (or ?v_13 ?v_15)) (or ?v_14 ?v_15)) (or ?v_16 ?v_17)) (or ?v_16 ?v_18)) (or ?v_16 ?v_19)) (or ?v_17 ?v_18)) (or ?v_17 ?v_19)) (or ?v_18 ?v_19)) (or ?v_20 ?v_21)) (or ?v_20 ?v_22)) (or ?v_20 ?v_23)) (or ?v_21 ?v_22)) (or ?v_21 ?v_23)) (or ?v_22 ?v_23)) (or ?v_24 ?v_25)) (or ?v_24 ?v_26)) (or ?v_24 ?v_27)) (or ?v_25 ?v_26)) (or ?v_25 ?v_27)) (or ?v_26 ?v_27)) (or ?v_28 ?v_29)) (or ?v_28 ?v_30)) (or ?v_28 ?v_31)) (or ?v_29 ?v_30)) (or ?v_29 ?v_31)) (or ?v_30 ?v_31)) (or ?v_32 ?v_33)) (or ?v_99 (not ?v_33))) (or ?v_34 ?v_35)) (or ?v_98 (not ?v_35))) (or ?v_36 ?v_37)) (or ?v_104 (not ?v_37))) (or ?v_38 ?v_39)) (or ?v_103 (not ?v_39))) (or ?v_40 ?v_41)) (or ?v_108 (not ?v_41))) (or ?v_42 ?v_43)) (or ?v_107 (not ?v_43))) (or ?v_44 ?v_45)) (or ?v_112 (not ?v_45))) (or ?v_46 ?v_47)) (or ?v_111 (not ?v_47))) (or ?v_1 ?v_50)) (or ?v_5 (<= ?v_124 10))) (or ?v_9 ?v_58)) (or ?v_13 (<= ?v_125 10))) (or ?v_17 ?v_65)) (or ?v_21 (<= ?v_126 10))) (or ?v_25 ?v_72)) (or ?v_29 (<= ?v_127 10))) (or (or (or (or (or (or AT0_PROC1_WAIT AT0_DELTA) AT0_PROC1_SW_A_B_TAU) AT0_PROC1_SW_B_C_TAU) AT0_PROC1_SW_C_B_TAU) AT0_PROC1_SW_C_CS_TAU) AT0_PROC1_SW_CS_A_TAU)) (or (or (or (or (or (or AT0_PROC2_WAIT AT0_DELTA) AT0_PROC2_SW_A_B_TAU) AT0_PROC2_SW_B_C_TAU) AT0_PROC2_SW_C_B_TAU) AT0_PROC2_SW_C_CS_TAU) AT0_PROC2_SW_CS_A_TAU)) (or (or (or (or (or (or AT0_PROC3_WAIT AT0_DELTA) AT0_PROC3_SW_A_B_TAU) AT0_PROC3_SW_B_C_TAU) AT0_PROC3_SW_C_B_TAU) AT0_PROC3_SW_C_CS_TAU) AT0_PROC3_SW_CS_A_TAU)) (or (or (or (or (or (or AT0_PROC4_WAIT AT0_DELTA) AT0_PROC4_SW_A_B_TAU) AT0_PROC4_SW_B_C_TAU) AT0_PROC4_SW_C_B_TAU) AT0_PROC4_SW_C_CS_TAU) AT0_PROC4_SW_CS_A_TAU)) (or ?v_48 AT0_PROC1_A)) (or ?v_48 AT0_PROC1_TAU)) (or ?v_48 AT1_PROC1_B)) (or ?v_48 ?v_34)) (or ?v_49 AT0_PROC1_B)) (or ?v_49 AT0_PROC1_TAU)) (or ?v_49 AT1_PROC1_C)) (or ?v_49 ?v_50)) (or ?v_49 ?v_34)) (or ?v_51 AT0_PROC1_C)) (or ?v_51 AT0_PROC1_TAU)) (or ?v_51 AT1_PROC1_B)) (or ?v_51 ?v_34)) (or ?v_52 AT0_PROC1_C)) (or ?v_52 AT0_PROC1_TAU)) (or ?v_52 AT1_PROC1_CS)) (or ?v_52 (> ?v_53 10))) (or ?v_52 ?v_78)) (or ?v_54 AT0_PROC1_CS)) (or ?v_54 AT0_PROC1_TAU)) (or ?v_54 AT1_PROC1_A)) (or ?v_54 ?v_34)) (or ?v_48 ?v_55)) (or ?v_49 ?v_55)) (or ?v_51 ?v_55)) (or ?v_52 ?v_55)) (or ?v_54 ?v_55)) (or ?v_56 AT0_PROC2_A)) (or ?v_56 AT0_PROC2_TAU)) (or ?v_56 AT1_PROC2_B)) (or ?v_56 ?v_38)) (or ?v_57 AT0_PROC2_B)) (or ?v_57 AT0_PROC2_TAU)) (or ?v_57 AT1_PROC2_C)) (or ?v_57 ?v_58)) (or ?v_57 ?v_38)) (or ?v_59 AT0_PROC2_C)) (or ?v_59 AT0_PROC2_TAU)) (or ?v_59 AT1_PROC2_B)) (or ?v_59 ?v_38)) (or ?v_60 AT0_PROC2_C)) (or ?v_60 AT0_PROC2_TAU)) (or ?v_60 AT1_PROC2_CS)) (or ?v_60 (> ?v_61 10))) (or ?v_60 ?v_80)) (or ?v_62 AT0_PROC2_CS)) (or ?v_62 AT0_PROC2_TAU)) (or ?v_62 AT1_PROC2_A)) (or ?v_62 ?v_38)) (or ?v_56 ?v_55)) (or ?v_57 ?v_55)) (or ?v_59 ?v_55)) (or ?v_60 ?v_55)) (or ?v_62 ?v_55)) (or ?v_63 AT0_PROC3_A)) (or ?v_63 AT0_PROC3_TAU)) (or ?v_63 AT1_PROC3_B)) (or ?v_63 ?v_42)) (or ?v_64 AT0_PROC3_B)) (or ?v_64 AT0_PROC3_TAU)) (or ?v_64 AT1_PROC3_C)) (or ?v_64 ?v_65)) (or ?v_64 ?v_42)) (or ?v_66 AT0_PROC3_C)) (or ?v_66 AT0_PROC3_TAU)) (or ?v_66 AT1_PROC3_B)) (or ?v_66 ?v_42)) (or ?v_67 AT0_PROC3_C)) (or ?v_67 AT0_PROC3_TAU)) (or ?v_67 AT1_PROC3_CS)) (or ?v_67 (> ?v_68 10))) (or ?v_67 ?v_82)) (or ?v_69 AT0_PROC3_CS)) (or ?v_69 AT0_PROC3_TAU)) (or ?v_69 AT1_PROC3_A)) (or ?v_69 ?v_42)) (or ?v_63 ?v_55)) (or ?v_64 ?v_55)) (or ?v_66 ?v_55)) (or ?v_67 ?v_55)) (or ?v_69 ?v_55)) (or ?v_70 AT0_PROC4_A)) (or ?v_70 AT0_PROC4_TAU)) (or ?v_70 AT1_PROC4_B)) (or ?v_70 ?v_46)) (or ?v_71 AT0_PROC4_B)) (or ?v_71 AT0_PROC4_TAU)) (or ?v_71 AT1_PROC4_C)) (or ?v_71 ?v_72)) (or ?v_71 ?v_46)) (or ?v_73 AT0_PROC4_C)) (or ?v_73 AT0_PROC4_TAU)) (or ?v_73 AT1_PROC4_B)) (or ?v_73 ?v_46)) (or ?v_74 AT0_PROC4_C)) (or ?v_74 AT0_PROC4_TAU)) (or ?v_74 AT1_PROC4_CS)) (or ?v_74 (> ?v_75 10))) (or ?v_74 ?v_84)) (or ?v_76 AT0_PROC4_CS)) (or ?v_76 AT0_PROC4_TAU)) (or ?v_76 AT1_PROC4_A)) (or ?v_76 ?v_46)) (or ?v_70 ?v_55)) (or ?v_71 ?v_55)) (or ?v_73 ?v_55)) (or ?v_74 ?v_55)) (or ?v_76 ?v_55)) (or (or ?v_77 ?v_0) AT1_PROC1_A)) (or (or ?v_77 AT0_PROC1_A) ?v_4)) (or (or ?v_77 ?v_1) AT1_PROC1_B)) (or (or ?v_77 AT0_PROC1_B) ?v_5)) (or (or ?v_77 ?v_2) AT1_PROC1_C)) (or (or ?v_77 AT0_PROC1_C) ?v_6)) (or (or ?v_77 ?v_3) AT1_PROC1_CS)) (or (or ?v_77 AT0_PROC1_CS) ?v_7)) (or ?v_77 ?v_86)) (or ?v_77 ?v_78)) (or ?v_77 ?v_55)) (or (or ?v_79 ?v_8) AT1_PROC2_A)) (or (or ?v_79 AT0_PROC2_A) ?v_12)) (or (or ?v_79 ?v_9) AT1_PROC2_B)) (or (or ?v_79 AT0_PROC2_B) ?v_13)) (or (or ?v_79 ?v_10) AT1_PROC2_C)) (or (or ?v_79 AT0_PROC2_C) ?v_14)) (or (or ?v_79 ?v_11) AT1_PROC2_CS)) (or (or ?v_79 AT0_PROC2_CS) ?v_15)) (or ?v_79 ?v_87)) (or ?v_79 ?v_80)) (or ?v_79 ?v_55)) (or (or ?v_81 ?v_16) AT1_PROC3_A)) (or (or ?v_81 AT0_PROC3_A) ?v_20)) (or (or ?v_81 ?v_17) AT1_PROC3_B)) (or (or ?v_81 AT0_PROC3_B) ?v_21)) (or (or ?v_81 ?v_18) AT1_PROC3_C)) (or (or ?v_81 AT0_PROC3_C) ?v_22)) (or (or ?v_81 ?v_19) AT1_PROC3_CS)) (or (or ?v_81 AT0_PROC3_CS) ?v_23)) (or ?v_81 ?v_89)) (or ?v_81 ?v_82)) (or ?v_81 ?v_55)) (or (or ?v_83 ?v_24) AT1_PROC4_A)) (or (or ?v_83 AT0_PROC4_A) ?v_28)) (or (or ?v_83 ?v_25) AT1_PROC4_B)) (or (or ?v_83 AT0_PROC4_B) ?v_29)) (or (or ?v_83 ?v_26) AT1_PROC4_C)) (or (or ?v_83 AT0_PROC4_C) ?v_30)) (or (or ?v_83 ?v_27) AT1_PROC4_CS)) (or (or ?v_83 AT0_PROC4_CS) ?v_31)) (or ?v_83 ?v_90)) (or ?v_83 ?v_84)) (or ?v_83 ?v_55)) (or (or ?v_85 ?v_0) AT1_PROC1_A)) (or (or ?v_85 AT0_PROC1_A) ?v_4)) (or (or ?v_85 ?v_1) AT1_PROC1_B)) (or (or ?v_85 AT0_PROC1_B) ?v_5)) (or (or ?v_85 ?v_2) AT1_PROC1_C)) (or (or ?v_85 AT0_PROC1_C) ?v_6)) (or (or ?v_85 ?v_3) AT1_PROC1_CS)) (or (or ?v_85 AT0_PROC1_CS) ?v_7)) (or ?v_85 ?v_78)) (or ?v_85 ?v_86)) ?v_88) (or (or ?v_85 ?v_8) AT1_PROC2_A)) (or (or ?v_85 AT0_PROC2_A) ?v_12)) (or (or ?v_85 ?v_9) AT1_PROC2_B)) (or (or ?v_85 AT0_PROC2_B) ?v_13)) (or (or ?v_85 ?v_10) AT1_PROC2_C)) (or (or ?v_85 AT0_PROC2_C) ?v_14)) (or (or ?v_85 ?v_11) AT1_PROC2_CS)) (or (or ?v_85 AT0_PROC2_CS) ?v_15)) (or ?v_85 ?v_80)) (or ?v_85 ?v_87)) ?v_88) (or (or ?v_85 ?v_16) AT1_PROC3_A)) (or (or ?v_85 AT0_PROC3_A) ?v_20)) (or (or ?v_85 ?v_17) AT1_PROC3_B)) (or (or ?v_85 AT0_PROC3_B) ?v_21)) (or (or ?v_85 ?v_18) AT1_PROC3_C)) (or (or ?v_85 AT0_PROC3_C) ?v_22)) (or (or ?v_85 ?v_19) AT1_PROC3_CS)) (or (or ?v_85 AT0_PROC3_CS) ?v_23)) (or ?v_85 ?v_82)) (or ?v_85 ?v_89)) ?v_88) (or (or ?v_85 ?v_24) AT1_PROC4_A)) (or (or ?v_85 AT0_PROC4_A) ?v_28)) (or (or ?v_85 ?v_25) AT1_PROC4_B)) (or (or ?v_85 AT0_PROC4_B) ?v_29)) (or (or ?v_85 ?v_26) AT1_PROC4_C)) (or (or ?v_85 AT0_PROC4_C) ?v_30)) (or (or ?v_85 ?v_27) AT1_PROC4_CS)) (or (or ?v_85 AT0_PROC4_CS) ?v_31)) (or ?v_85 ?v_84)) (or ?v_85 ?v_90)) ?v_88) (or ?v_78 ?v_91)) (or ?v_96 (not ?v_91))) (or ?v_80 ?v_92)) (or ?v_102 (not ?v_92))) (or ?v_82 ?v_93)) (or ?v_106 (not ?v_93))) (or ?v_84 ?v_94)) (or ?v_110 (not ?v_94))) (or ?v_55 ?v_95)) (or ?v_97 ?v_101)) (or (or (or ?v_32 ?v_96) ?v_97) ?v_98)) (or (or (or ?v_99 ?v_78) ?v_97) ?v_98)) (or (or ?v_100 ?v_55) ?v_98)) (or (or ?v_100 ?v_97) ?v_34)) (or (or (or (not (< AT0_Z AT0_PROC1_X)) ?v_96) ?v_101) (< AT1_Z AT1_PROC1_X))) (or (or (or ?v_36 ?v_102) ?v_97) ?v_103)) (or (or (or ?v_104 ?v_80) ?v_97) ?v_103)) (or (or ?v_105 ?v_55) ?v_103)) (or (or ?v_105 ?v_97) ?v_38)) (or (or (or (not (< AT0_Z AT0_PROC2_X)) ?v_102) ?v_101) (< AT1_Z AT1_PROC2_X))) (or (or (or ?v_40 ?v_106) ?v_97) ?v_107)) (or (or (or ?v_108 ?v_82) ?v_97) ?v_107)) (or (or ?v_109 ?v_55) ?v_107)) (or (or ?v_109 ?v_97) ?v_42)) (or (or (or (not (< AT0_Z AT0_PROC3_X)) ?v_106) ?v_101) (< AT1_Z AT1_PROC3_X))) (or (or (or ?v_44 ?v_110) ?v_97) ?v_111)) (or (or (or ?v_112 ?v_84) ?v_97) ?v_111)) (or (or ?v_113 ?v_55) ?v_111)) (or (or ?v_113 ?v_97) ?v_46)) (or (or (or (not (< AT0_Z AT0_PROC4_X)) ?v_110) ?v_101) (< AT1_Z AT1_PROC4_X))) AT0_PROC1_A) AT0_PROC2_A) AT0_PROC3_A) AT0_PROC4_A) ?v_32) ?v_36) ?v_40) ?v_44) AT0_ID0) (or (or (or ?v_77 ?v_79) ?v_81) ?v_83)) (or ?v_114 ?v_115)) (or ?v_114 ?v_116)) (or ?v_114 ?v_117)) (or ?v_114 ?v_118)) (or ?v_115 ?v_116)) (or ?v_115 ?v_117)) (or ?v_115 ?v_118)) (or ?v_116 ?v_117)) (or ?v_116 ?v_118)) (or ?v_117 ?v_118)) (or ?v_119 ?v_120)) (or ?v_119 ?v_121)) (or ?v_119 ?v_122)) (or ?v_119 ?v_123)) (or ?v_120 ?v_121)) (or ?v_120 ?v_122)) (or ?v_120 ?v_123)) (or ?v_121 ?v_122)) (or ?v_121 ?v_123)) (or ?v_122 ?v_123)) (or ?v_48 AT0_ID0)) (or ?v_48 AT1_ID0)) (or ?v_49 AT1_ID1)) (or ?v_51 AT0_ID0)) (or ?v_51 AT1_ID0)) (or ?v_52 AT0_ID1)) (or ?v_52 AT1_ID1)) (or ?v_54 AT1_ID0)) (or (or ?v_85 ?v_115) AT1_ID1)) (or ?v_56 AT0_ID0)) (or ?v_56 AT1_ID0)) (or ?v_57 AT1_ID2)) (or ?v_59 AT0_ID0)) (or ?v_59 AT1_ID0)) (or ?v_60 AT0_ID2)) (or ?v_60 AT1_ID2)) (or ?v_62 AT1_ID0)) (or (or ?v_85 ?v_116) AT1_ID2)) (or ?v_63 AT0_ID0)) (or ?v_63 AT1_ID0)) (or ?v_64 AT1_ID3)) (or ?v_66 AT0_ID0)) (or ?v_66 AT1_ID0)) (or ?v_67 AT0_ID3)) (or ?v_67 AT1_ID3)) (or ?v_69 AT1_ID0)) (or (or ?v_85 ?v_117) AT1_ID3)) (or ?v_70 AT0_ID0)) (or ?v_70 AT1_ID0)) (or ?v_71 AT1_ID4)) (or ?v_73 AT0_ID0)) (or ?v_73 AT1_ID0)) (or ?v_74 AT0_ID4)) (or ?v_74 AT1_ID4)) (or ?v_76 AT1_ID0)) (or (or ?v_85 ?v_118) AT1_ID4)) (or (or ?v_85 ?v_114) AT1_ID0)) (or ?v_4 AT1_PROC1_A)) (or AT1_PROC1_A ?v_4)) (or ?v_5 AT1_PROC1_B)) (or AT1_PROC1_B ?v_5)) (or ?v_6 AT1_PROC1_C)) (or AT1_PROC1_C ?v_6)) (or ?v_7 AT1_PROC1_CS)) (or AT1_PROC1_CS ?v_7)) (or ?v_120 AT1_ID1)) (or AT1_ID1 ?v_120)) (= ?v_124 ?v_124)) (or ?v_12 AT1_PROC2_A)) (or AT1_PROC2_A ?v_12)) (or ?v_13 AT1_PROC2_B)) (or AT1_PROC2_B ?v_13)) (or ?v_14 AT1_PROC2_C)) (or AT1_PROC2_C ?v_14)) (or ?v_15 AT1_PROC2_CS)) (or AT1_PROC2_CS ?v_15)) (or ?v_121 AT1_ID2)) (or AT1_ID2 ?v_121)) (= ?v_125 ?v_125)) (or ?v_20 AT1_PROC3_A)) (or AT1_PROC3_A ?v_20)) (or ?v_21 AT1_PROC3_B)) (or AT1_PROC3_B ?v_21)) (or ?v_22 AT1_PROC3_C)) (or AT1_PROC3_C ?v_22)) (or ?v_23 AT1_PROC3_CS)) (or AT1_PROC3_CS ?v_23)) (or ?v_122 AT1_ID3)) (or AT1_ID3 ?v_122)) (= ?v_126 ?v_126)) (or ?v_28 AT1_PROC4_A)) (or AT1_PROC4_A ?v_28)) (or ?v_29 AT1_PROC4_B)) (or AT1_PROC4_B ?v_29)) (or ?v_30 AT1_PROC4_C)) (or AT1_PROC4_C ?v_30)) (or ?v_31 AT1_PROC4_CS)) (or AT1_PROC4_CS ?v_31)) (or ?v_123 AT1_ID4)) (or AT1_ID4 ?v_123)) (= ?v_127 ?v_127)) AT1_PROC1_B) ?v_7)))))))))))))))))
(check-sat)
(exit)
